50 8
788 260
280 908
243 770
59 597
477 157
160 592
254 768
650 141
835 334
786 678
472 400
832 368
437 603
759 716
813 744
312 361
434 664
602 859
211 556
655 588
811 848
309 773
630 683
453 804
382 446
699 906
280 168
771 844
755 320
411 731
710 369
57 398
376 909
155 372
571 915
499 429
341 361
310 377
694 679
259 744
168 342
354 916
491 688
761 359
731 407
822 495
299 305
598 683
883 360
626 843
